NAME : gr137.100811.tour
COMMENT : Cost = 33652_100811
COMMENT : Found by LKH [Keld Helsgaun] Thu Nov 16 17:24:53 2017
TYPE : TOUR
DIMENSION : 139
TOUR_SECTION
1
6
7
19
24
26
30
29
36
37
41
13
14
15
17
16
45
46
47
42
43
44
49
50
51
75
88
87
89
90
91
93
94
95
92
70
69
68
67
66
63
62
60
59
58
61
57
56
55
54
53
52
28
27
25
23
22
21
20
18
5
4
3
2
139
33
34
35
64
65
97
98
100
104
115
105
106
107
108
109
110
111
112
113
114
116
103
101
99
96
71
38
10
138
9
8
31
32
39
40
72
73
74
76
77
82
86
136
137
102
126
125
117
118
119
120
121
122
123
124
127
128
129
130
131
132
133
134
135
83
84
85
81
80
79
78
48
12
11
-1
EOF
